
Gurobi 13.0.2 (win64) logging started Fri Jul 24 09:24:28 2026

Set parameter LogFile to value "E:\codes\ExactEBRP\results\gf_c0_mechanism_transfer_c5_round30\runs\stage2__moderate_seed5301__c4_candidate__300s\external\native_logs\L0.1.0.0.0.0.1.0_lp.gurobi.log"
Gurobi Optimizer version 13.0.2 build v13.0.2rc1 (win64 - Windows 10.0 (19045.2))

CPU model: 12th Gen Intel(R) Core(TM) i7-12700KF, instruction set [SSE2|AVX|AVX2]
Thread count: 12 physical cores, 20 logical processors, using up to 1 threads

Non-default parameters:
TimeLimit  2.5228595689999997e+02
MIPGap  0
MIPGapAbs  0
LogToConsole  0
Threads  1

Optimize a model with 11944 rows, 3386 columns and 67436 nonzeros (Min)
Model fingerprint: 0xe420d111
Model has 21 linear objective coefficients
Coefficient statistics:
  Matrix range     [9e-03, 1e+04]
  Objective range  [9e-03, 1e+00]
  Bounds range     [2e-02, 2e+02]
  RHS range        [2e-02, 5e+04]

Presolve removed 580 rows and 104 columns
Presolve time: 0.04s
Presolved: 11364 rows, 3373 columns, 65081 nonzeros

Iteration    Objective       Primal Inf.    Dual Inf.      Time
       0    2.1766766e-02   2.778482e+02   0.000000e+00      0s
    3825    7.8155689e-02   0.000000e+00   0.000000e+00      0s

Solved in 3825 iterations and 0.32 seconds (0.96 work units)
Optimal objective  7.815568927e-02

User-callback calls 3973, time in user-callback 0.00 sec
